NAME: test126
TYPE: TSP
DIMENSION: 20
EDGE_WEIGHT_TYPE: EUC_2D
NODE_COORD_SECTION
1 34.02015289209959 1.139194615278849
2 42.68836794741577 99.71299409049487
3 66.38265687596451 83.92989780602636
4 57.21671375289792 29.713511358503688
5 27.78752940966741 35.216224478097324
6 73.8991816587868 93.17659371862511
7 30.223253094880032 12.322065754155142
8 86.09814362281973 55.30080666709966
9 61.663345377800006 79.28058113513349
10 2.048408160316073 12.660843196783588
11 26.87075634970527 44.5852795024135
12 19.78779924389236 45.668052724976874
13 35.948759074994996 95.70911226988498
14 64.19157455887469 52.04156889882814
15 32.230129301728425 99.27208168769856
16 7.153860025364511 5.7004613295861155
17 91.78763513300734 27.386980928764014
18 8.583555756841454 28.46796368052521
19 8.594151192803546 73.23155849610328
20 83.34552090332168 5.622284405029754
EOF
